
n_res = 4;
rcap = [30, 28, 71, 74];
rtype = [1, 1, 2, 2];
n_tasks = 50;
modes =  [{1, 2, 3}, {4, 5, 6}, {7, 8, 9}, {10, 11, 12}, {13, 14, 15}, {16, 17, 18}, {19, 20, 21}, {22, 23, 24}, {25, 26, 27}, {28, 29, 30}, {31, 32, 33}, {34, 35, 36}, {37, 38, 39}, {40, 41, 42}, {43, 44, 45}, {46, 47, 48}, {49, 50, 51}, {52, 53, 54}, {55, 56, 57}, {58, 59, 60}, {61, 62, 63}, {64, 65, 66}, {67, 68, 69}, {70, 71, 72}, {73, 74, 75}, {76, 77, 78}, {79, 80, 81}, {82, 83, 84}, {85, 86, 87}, {88, 89, 90}, {91, 92, 93}, {94, 95, 96}, {97, 98, 99}, {100, 101, 102}, {103, 104, 105}, {106, 107, 108}, {109, 110, 111}, {112, 113, 114}, {115, 116, 117}, {118, 119, 120}, {121, 122, 123}, {124, 125, 126}, {127, 128, 129}, {130, 131, 132}, {133, 134, 135}, {136, 137, 138}, {139, 140, 141}, {142, 143, 144}, {145, 146, 147}, {148, 149, 150}];
succ =  [{6, 4, 3}, {14, 10, 9, 8, 6}, {20, 8, 7}, {21, 18, 15, 14, 13, 12}, {20, 18, 16, 15, 13, 10}, {21, 20, 16, 15, 13, 12}, {27, 22, 16, 15, 12, 10}, {18, 15, 13, 12}, {27, 21, 20, 19, 17}, {25, 21, 19, 17}, {27, 17, 15}, {25, 19, 17}, {29, 27, 24, 22}, {20, 19}, {29, 25, 24, 23}, {29, 25, 24, 23}, {30, 29, 24, 23}, {30, 29, 24, 23}, {30, 29, 23}, {35, 25, 23}, {29, 23}, {30, 23}, {32, 28, 26}, {32, 28, 26}, {32, 30, 28}, {39, 37, 36, 34, 33, 31}, {28}, {39, 36, 34, 33}, {35, 34, 33}, {49, 42, 38, 36, 34}, {49, 48, 43, 42, 38}, {49, 47, 43, 42, 40, 39}, {49, 48, 42, 38}, {50, 48, 47, 43, 41, 40}, {49, 47, 42, 41, 39}, {48, 47, 43, 40}, {47, 44, 43, 42}, {50, 47, 40}, {48, 46, 44}, {46, 44}, {46, 44}, {46, 45}, {46, 45}, {45}, {}, {}, {}, {}, {}, {}];
n_opt = 150;
dur = [3, 4, 8, 1, 5, 9, 6, 8, 9, 2, 5, 5, 5, 7, 8, 4, 5, 7, 1, 4, 8, 1, 9, 10, 5, 5, 9, 2, 3, 8, 2, 7, 8, 2, 6, 10, 6, 6, 9, 5, 6, 9, 2, 5, 9, 1, 2, 2, 5, 6, 8, 4, 5, 7, 4, 4, 5, 1, 5, 8, 2, 6, 8, 1, 2, 6, 2, 6, 8, 1, 2, 7, 3, 7, 10, 7, 7, 9, 1, 6, 10, 8, 9, 9, 1, 7, 8, 2, 7, 10, 4, 4, 6, 2, 4, 8, 5, 6, 10, 2, 9, 9, 2, 7, 8, 1, 5, 5, 1, 4, 9, 1, 5, 8, 3, 4, 9, 2, 6, 10, 2, 6, 8, 1, 8, 9, 4, 5, 6, 2, 4, 10, 1, 4, 8, 3, 4, 5, 3, 4, 6, 3, 4, 5, 3, 5, 9, 1, 6, 7];
rreq = [|6, 6, 1, 1, 1, 1, 8, 5, 4, 9, 8, 8, 10, 9, 9, 9, 7, 3, 9, 7, 6, 5, 3, 1, 4, 2, 2, 6, 4, 1, 4, 4, 4, 9, 8, 8, 8, 6, 6, 10, 9, 7, 8, 5, 5, 10, 8, 5, 9, 9, 8, 7, 6, 6, 7, 6, 3, 2, 2, 2, 6, 6, 6, 5, 3, 2, 7, 5, 4, 9, 9, 9, 8, 8, 8, 9, 8, 7, 5, 3, 2, 3, 3, 3, 7, 6, 4, 7, 5, 3, 7, 7, 7, 7, 5, 4, 5, 4, 3, 4, 2, 2, 6, 6, 6, 9, 6, 5, 2, 1, 1, 7, 7, 7, 10, 8, 8, 9, 9, 8, 2, 1, 1, 1, 1, 1, 4, 4, 4, 6, 5, 5, 9, 9, 9, 3, 3, 2, 9, 7, 6, 5, 4, 3, 10, 9, 8, 3, 3, 3
 |8, 6, 3, 9, 9, 9, 9, 6, 6, 7, 5, 4, 2, 1, 1, 5, 3, 2, 6, 4, 1, 8, 5, 4, 6, 5, 4, 7, 3, 2, 3, 2, 1, 9, 6, 3, 4, 4, 4, 10, 8, 5, 6, 5, 3, 5, 3, 3, 9, 8, 8, 6, 6, 6, 5, 4, 3, 9, 9, 8, 6, 5, 3, 10, 9, 9, 4, 2, 2, 10, 9, 8, 4, 3, 3, 6, 6, 6, 5, 5, 3, 5, 4, 4, 9, 9, 8, 9, 9, 8, 1, 1, 1, 10, 6, 6, 7, 7, 5, 5, 3, 2, 5, 3, 3, 5, 4, 3, 6, 5, 4, 10, 4, 1, 4, 4, 4, 9, 6, 4, 5, 4, 4, 9, 9, 9, 7, 6, 5, 6, 6, 6, 7, 7, 7, 9, 8, 7, 2, 1, 1, 1, 1, 1, 10, 7, 6, 5, 4, 3
 |0, 0, 1, 0, 0, 0, 0, 0, 2, 0, 0, 1, 0, 6, 1, 0, 5, 5, 9, 4, 1, 9, 8, 0, 0, 8, 8, 9, 6, 0, 4, 0, 0, 8, 7, 6, 0, 8, 7, 6, 0, 0, 0, 3, 0, 10, 0, 3, 0, 1, 0, 0, 0, 4, 0, 8, 4, 7, 3, 1, 4, 0, 0, 2, 2, 2, 0, 3, 2, 0, 0, 0, 0, 0, 0, 6, 0, 0, 0, 0, 6, 0, 0, 6, 6, 6, 5, 0, 0, 0, 6, 0, 5, 0, 2, 2, 0, 0, 0, 0, 8, 0, 5, 0, 4, 0, 0, 7, 9, 4, 2, 0, 4, 4, 0, 4, 0, 7, 0, 1, 0, 3, 1, 0, 0, 6, 0, 0, 0, 0, 0, 0, 10, 0, 0, 0, 0, 4, 5, 3, 2, 0, 0, 0, 10, 0, 0, 3, 0, 0
 |9, 6, 0, 3, 2, 1, 8, 8, 0, 4, 4, 0, 4, 0, 0, 7, 0, 0, 0, 0, 0, 0, 0, 5, 5, 0, 0, 0, 0, 1, 0, 8, 6, 0, 0, 0, 6, 0, 0, 0, 4, 3, 3, 0, 1, 0, 8, 0, 8, 0, 7, 3, 2, 0, 10, 0, 0, 0, 0, 0, 0, 5, 2, 0, 0, 0, 4, 0, 0, 5, 2, 1, 6, 3, 1, 0, 5, 1, 5, 2, 0, 8, 8, 0, 0, 0, 0, 4, 3, 3, 0, 3, 0, 9, 0, 0, 2, 1, 1, 4, 0, 4, 0, 7, 0, 3, 2, 0, 0, 0, 0, 6, 0, 0, 3, 0, 1, 0, 4, 0, 6, 0, 0, 10, 7, 0, 8, 6, 6, 5, 4, 3, 0, 2, 1, 7, 3, 0, 0, 0, 0, 9, 7, 6, 0, 1, 1, 0, 6, 6|];